
Gurobi 9.5.1 (win64) logging started Thu Nov  9 18:14:42 2023

Set parameter LogFile to value "consol_info_10"

Gurobi 9.5.1 (win64) logging started Sat Nov 11 13:15:39 2023

Set parameter LogFile to value "consol_info_10"
